c ren 1 -> 1
c ren 2 -> 2
c ren 4 -> 3
c ren 6 -> 4
c ren 7 -> 5
c ren 12 -> 6
c ren 13 -> 7
c ren 18 -> 8
c ren 23 -> 9
c ren 24 -> 10
c ren 26 -> 11
c ren 29 -> 12
c ren 30 -> 13
c ren 32 -> 14
c ren 35 -> 15
c ren 40 -> 16
c ren 45 -> 17
c ren 50 -> 18
c ren 55 -> 19
c ren 60 -> 20
c ren 64 -> 21
c ren 65 -> 22
c ren 67 -> 23
c ren 70 -> 24
c ren 72 -> 25
c ren 75 -> 26
c ren 77 -> 27
c ren 80 -> 28
c ren 82 -> 29
c ren 85 -> 30
c ren 87 -> 31
c ren 90 -> 32
c ren 92 -> 33
c ren 95 -> 34
c ren 97 -> 35
c ren 100 -> 36
c ren 102 -> 37
c ren 105 -> 38
c ren 107 -> 39
c ren 110 -> 40
c ren 112 -> 41
c ren 115 -> 42
c ren 117 -> 43
c ren 120 -> 44
c ren 122 -> 45
c ren 125 -> 46
c ren 127 -> 47
c ren 130 -> 48
c ren 132 -> 49
c ren 135 -> 50
c ren 137 -> 51
c ren 140 -> 52
c ren 142 -> 53
c ren 145 -> 54
c ren 147 -> 55
c ren 150 -> 56
c ren 151 -> 57
c ren 154 -> 58
c ren 158 -> 59
c ren 162 -> 60
c ren 167 -> 61
c ren 171 -> 62
c ren 175 -> 63
c ren 180 -> 64
c ren 184 -> 65
c ren 185 -> 66
c ren 187 -> 67
c ren 190 -> 68
c ren 192 -> 69
c ren 195 -> 70
c ren 197 -> 71
c ren 200 -> 72
c ren 202 -> 73
c ren 205 -> 74
c ren 206 -> 75
c ren 209 -> 76
c ren 214 -> 77
c ren 219 -> 78
c ren 224 -> 79
c ren 229 -> 80
c ren 233 -> 81
c ren 234 -> 82
c ren 236 -> 83
c ren 239 -> 84
c ren 241 -> 85
c ren 244 -> 86
c ren 246 -> 87
c ren 249 -> 88
c ren 251 -> 89
c ren 254 -> 90
c ren 255 -> 91
c ren 258 -> 92
c ren 259 -> 93
c ren 262 -> 94
c ren 267 -> 95
c ren 271 -> 96
c ren 275 -> 97
c ren 280 -> 98
c ren 284 -> 99
c ren 285 -> 100
c ren 287 -> 101
c ren 290 -> 102
c ren 292 -> 103
c ren 295 -> 104
c ren 298 -> 105
c ren 301 -> 106
c ren 302 -> 107
c ren 304 -> 108
c ren 305 -> 109
c ren 307 -> 110
c ren 310 -> 111
c ren 312 -> 112
c ren 313 -> 113
c ren 314 -> 114
c ren 316 -> 115
c ren 318 -> 116
c ren 319 -> 117
c ren 321 -> 118
c ren 325 -> 119
c ren 327 -> 120
c ren 328 -> 121
c ren 330 -> 122
c ren 332 -> 123
c ren 333 -> 124
c ren 338 -> 125
c ren 340 -> 126
c ren 342 -> 127
c ren 346 -> 128
c ren 349 -> 129
c ren 355 -> 130
c ren 356 -> 131
c ren 359 -> 132
c ren 362 -> 133
c ren 363 -> 134
c ren 365 -> 135
c ren 366 -> 136
c ren 368 -> 137
c ren 371 -> 138
c ren 373 -> 139
c ren 374 -> 140
c ren 375 -> 141
c ren 377 -> 142
c ren 379 -> 143
c ren 380 -> 144
c ren 382 -> 145
c ren 386 -> 146
c ren 387 -> 147
c ren 388 -> 148
c ren 390 -> 149
c ren 392 -> 150
c ren 394 -> 151
c ren 395 -> 152
c ren 396 -> 153
c ren 400 -> 154
c ren 401 -> 155
c ren 403 -> 156
c ren 404 -> 157
c ren 407 -> 158
c ren 408 -> 159
c ren 410 -> 160
c ren 411 -> 161
c ren 417 -> 162
c ren 428 -> 163
c ren 431 -> 164
c ren 434 -> 165
c ren 436 -> 166
c ren 438 -> 167
c ren 443 -> 168
c ren 445 -> 169
c ren 447 -> 170
c ren 449 -> 171
c ren 466 -> 172
c ren 473 -> 173
c ren 475 -> 174
c ren 478 -> 175
c ren 481 -> 176
c ren 484 -> 177
c ren 486 -> 178
c ren 487 -> 179
c ren 489 -> 180
p cnf 180 711
a 1 2 4 5 6 7 8 9 10 12 13 15 16 17 18 19 20 22 24 26 28 30 32 34 36 38 40 42 44 46 48 50 52 54 56 58 59 60 61 62 63 64 66 68 70 72 74 76 77 78 79 80 82 84 86 88 90 92 94 95 96 97 98 100 102 104 105 107 109 111 115 117 119 121 124 125 127 128 129 131 132 134 136 138 142 144 148 150 152 154 156 158 160 164 170 174 177 0
d 113 2 164 0
d 123 2 90 92 170 0
d 126 5 10 13 95 0
d 140 2 174 0
d 146 2 177 0
e 3 11 14 21 23 25 27 29 31 33 35 37 39 41 43 45 47 49 51 53 55 57 65 67 69 71 73 75 81 83 85 87 89 91 93 99 101 103 106 108 110 112 114 116 118 120 122 130 133 135 137 139 141 143 145 147 149 151 153 155 157 159 161 162 163 165 166 167 168 169 171 172 173 175 176 178 179 180 0
-1 2 3 0
1 -2 3 0
-1 -2 -3 0
1 2 -3 0
-3 -4 5 6 -7 8 -11 12 -14 15 16 17 18 -19 20 -21 0
6 7 21 0
4 -8 21 0
-3 -4 5 6 -7 8 -9 -11 -12 -14 -15 16 17 18 -19 -20 -21 0
-3 4 -5 -6 7 8 9 -11 -14 15 16 -17 18 19 20 -21 0
6 -8 21 0
-9 10 11 0
9 -10 11 0
-9 -10 -11 0
9 10 -11 0
11 21 0
-12 13 14 0
12 -13 14 0
-12 -13 -14 0
12 13 -14 0
14 21 0
-3 -4 5 -6 7 -8 9 -11 -14 15 16 17 18 19 20 -21 0
12 -15 21 0
-3 -4 5 6 -7 8 9 -11 -14 15 16 17 18 -19 20 -21 0
9 -15 21 0
-3 4 -5 -6 7 8 -11 12 -14 15 16 -17 18 19 20 -21 0
-3 4 -5 6 -7 8 9 -11 -14 15 16 17 18 19 20 -21 0
-3 -4 5 -6 7 -8 -11 12 -14 15 16 17 18 19 20 -21 0
-3 4 -5 6 -7 8 -11 12 -14 15 16 17 18 19 20 -21 0
-4 -6 8 21 0
3 21 0
-4 -5 21 0
-3 4 -5 6 -7 8 -9 -11 -12 -14 -15 16 17 18 19 20 -21 0
-3 -4 5 -6 7 -8 -9 -11 -12 -14 -15 -16 17 18 19 20 -21 0
-8 -15 16 21 0
6 -17 21 0
4 5 21 0
-5 -6 17 21 0
17 -18 21 0
-15 -17 18 21 0
-6 -7 21 0
5 -17 21 0
15 -18 21 0
-9 -12 15 21 0
4 -19 21 0
7 -19 21 0
8 -16 21 0
-4 -7 19 21 0
-3 4 -5 -6 7 8 -9 -11 -12 -14 -15 16 -17 -18 19 20 -21 0
15 -20 21 0
15 -16 21 0
19 -20 21 0
-15 -19 20 21 0
5 -22 -23 0
-5 -7 -22 23 0
7 74 75 0
-5 -7 22 -23 0
5 74 75 0
5 -74 -75 0
-5 -7 -74 75 0
23 65 0
5 7 10 13 21 -23 -25 -27 -29 -31 -33 -35 -37 -39 -41 -43 -45 -47 -49 -51 -53 -55 -57 -58 -59 -60 -61 -62 -63 -64 -65 0
15 -24 -25 0
-15 -22 -24 25 0
-15 -22 24 -25 0
22 24 25 0
22 -24 -25 0
15 24 25 0
25 65 0
5 7 10 -13 21 -23 -25 -27 -29 -31 -33 -35 -37 -39 -41 -43 -45 -47 -49 -51 -53 -55 -57 -58 -59 -60 -61 62 63 64 -65 0
10 -26 -27 0
-10 -12 -26 27 0
-10 -12 26 -27 0
12 26 27 0
12 -26 -27 0
10 26 27 0
27 65 0
5 7 -10 13 21 -23 -25 -27 -29 -31 -33 -35 -37 -39 -41 -43 -45 -47 -49 -51 -53 -55 -57 -58 -59 -60 61 -62 63 64 -65 0
8 -28 -29 0
-8 -26 -28 29 0
-8 -26 28 -29 0
26 28 29 0
26 -28 -29 0
8 28 29 0
29 65 0
5 7 -10 -13 21 -23 -25 -27 -29 -31 -33 -35 -37 -39 -41 -43 -45 -47 -49 -51 -53 -55 -57 -58 -59 -60 61 62 63 64 -65 0
17 -30 -31 0
-17 -26 -30 31 0
-17 -26 30 -31 0
26 30 31 0
26 -30 -31 0
17 30 31 0
31 65 0
5 -7 10 13 21 -23 -25 -27 -29 -31 -33 -35 -37 -39 -41 -43 -45 -47 -49 -51 -53 -55 -57 -58 59 60 -61 -62 -63 64 -65 0
19 -32 -33 0
-19 -26 -32 33 0
-19 -26 32 -33 0
26 32 33 0
26 -32 -33 0
19 32 33 0
33 65 0
5 -7 10 -13 21 -23 -25 -27 -29 -31 -33 -35 -37 -39 -41 -43 -45 -47 -49 -51 -53 -55 -57 -58 59 60 -61 62 63 64 -65 0
22 -34 -35 0
-22 -26 -34 35 0
-22 -26 34 -35 0
26 34 35 0
26 -34 -35 0
22 34 35 0
35 65 0
5 -7 -10 13 21 -23 -25 -27 -29 -31 -33 -35 -37 -39 -41 -43 -45 -47 -49 -51 -53 -55 -57 -58 59 60 61 -62 63 64 -65 0
9 -36 -37 0
-9 -13 -36 37 0
-9 -13 36 -37 0
13 36 37 0
13 -36 -37 0
9 36 37 0
37 65 0
5 -7 -10 -13 21 -23 -25 -27 -29 -31 -33 -35 -37 -39 -41 -43 -45 -47 -49 -51 -53 -55 -57 -58 59 60 61 62 63 64 -65 0
8 -38 -39 0
-8 -36 -38 39 0
-8 -36 38 -39 0
36 38 39 0
36 -38 -39 0
8 38 39 0
39 65 0
-5 7 10 13 21 -23 -25 -27 -29 -31 -33 -35 -37 -39 -41 -43 -45 -47 -49 -51 -53 -55 -57 58 -59 60 -61 -62 -63 64 -65 0
17 -40 -41 0
-17 -36 -40 41 0
-17 -36 40 -41 0
36 40 41 0
36 -40 -41 0
17 40 41 0
41 65 0
-5 7 10 -13 21 -23 -25 -27 -29 -31 -33 -35 -37 -39 -41 -43 -45 -47 -49 -51 -53 -55 -57 58 -59 60 -61 62 63 64 -65 0
19 -42 -43 0
-19 -36 -42 43 0
-19 -36 42 -43 0
36 42 43 0
36 -42 -43 0
19 42 43 0
43 65 0
-5 7 -10 13 21 -23 -25 -27 -29 -31 -33 -35 -37 -39 -41 -43 -45 -47 -49 -51 -53 -55 -57 58 -59 60 61 -62 63 64 -65 0
22 -44 -45 0
-22 -36 -44 45 0
-22 -36 44 -45 0
36 44 45 0
36 -44 -45 0
22 44 45 0
45 65 0
-5 7 -10 -13 21 -23 -25 -27 -29 -31 -33 -35 -37 -39 -41 -43 -45 -47 -49 -51 -53 -55 -57 58 -59 60 61 62 63 64 -65 0
10 -46 -47 0
-10 -13 -46 47 0
13 59 81 -83 -85 -87 -89 -91 -93 94 95 96 97 98 -99 0
-10 -13 46 -47 0
10 59 81 -83 84 -85 -87 -89 -91 -93 94 95 96 97 98 -99 0
10 -59 81 -83 -85 -87 -89 -91 -93 94 -95 96 97 98 -99 0
-10 -13 59 70 81 -83 -85 -87 -89 -91 -93 94 95 -96 97 98 -99 0
47 65 0
-5 -7 10 13 21 -23 -25 -27 -29 -31 -33 -35 -37 -39 -41 -43 -45 -47 -49 -51 -53 -55 -57 58 59 60 -61 -62 -63 64 -65 0
8 -48 -49 0
-8 -46 -48 49 0
-8 -46 48 -49 0
46 48 49 0
46 -48 -49 0
8 48 49 0
49 65 0
-5 -7 10 -13 21 -23 -25 -27 -29 -31 -33 -35 -37 -39 -41 -43 -45 -47 -49 -51 -53 -55 -57 58 59 60 -61 62 63 64 -65 0
17 -50 -51 0
-17 -46 -50 51 0
-17 -46 50 -51 0
46 50 51 0
46 -50 -51 0
17 50 51 0
51 65 0
-5 -7 -10 13 21 -23 -25 -27 -29 -31 -33 -35 -37 -39 -41 -43 -45 -47 -49 -51 -53 -55 -57 58 59 60 61 -62 63 64 -65 0
19 -52 -53 0
-19 -46 -52 53 0
-19 -46 52 -53 0
46 52 53 0
46 -52 -53 0
19 52 53 0
53 65 0
-5 -7 -10 -13 21 -23 -25 -27 -29 -31 -33 -35 -37 -39 -41 -43 -45 -47 -49 -51 -53 -55 -57 58 59 60 61 62 63 64 -65 0
22 -54 -55 0
-22 -46 -54 55 0
-22 -46 54 -55 0
46 54 55 0
46 -54 -55 0
22 54 55 0
55 65 0
-21 65 0
2 -56 57 0
-2 56 57 0
-2 -56 -57 0
2 56 -57 0
57 65 0
7 -74 -75 0
-5 -58 65 0
7 59 65 0
-58 -59 60 65 0
59 -60 65 0
10 61 65 0
-10 -61 65 0
58 -60 65 0
13 62 65 0
-7 -59 65 0
61 -63 65 0
62 -63 65 0
-13 -62 65 0
-61 -62 63 65 0
5 58 65 0
60 -64 65 0
63 -64 65 0
-60 -63 64 65 0
5 -66 -67 0
-5 -59 -66 67 0
-5 -59 66 -67 0
59 66 67 0
59 -66 -67 0
5 66 67 0
67 81 0
63 -68 -69 0
-63 -66 -68 69 0
-63 -66 68 -69 0
66 68 69 0
66 -68 -69 0
63 68 69 0
69 81 0
7 -70 -71 0
-7 -58 -70 71 0
-7 -58 70 -71 0
58 70 71 0
58 -70 -71 0
7 70 71 0
71 81 0
63 -72 -73 0
-63 -70 -72 73 0
-63 -70 72 -73 0
70 72 73 0
70 -72 -73 0
63 72 73 0
73 81 0
-5 -7 74 -75 0
7 22 23 0
7 -22 -23 0
5 22 23 0
75 81 0
-62 63 65 66 -69 -70 -71 -73 -75 76 -77 78 79 -80 -81 0
-10 60 -62 65 66 -67 -69 70 -71 -73 -75 76 -77 78 79 80 -81 0
-63 65 -67 -69 -71 -73 -74 -75 -76 77 78 79 80 -81 0
-10 -60 -62 65 66 -69 -71 -73 74 76 -77 -78 79 80 -81 0
10 -77 81 0
-10 -62 65 -67 -69 -70 -71 -73 -75 76 -77 78 79 -80 -81 0
-63 -74 76 81 0
-10 -60 -62 65 66 -69 70 -73 -75 76 -77 -78 79 80 -81 0
60 -62 63 65 66 -67 -69 70 -71 -73 -75 76 -77 78 79 80 -81 0
10 65 -67 -69 -71 -73 74 -75 76 77 78 79 80 -81 0
10 63 65 -67 -69 -71 -73 -75 76 77 78 79 80 -81 0
-65 81 0
62 -77 81 0
62 65 -67 -69 -71 -73 -75 76 77 78 79 80 -81 0
-60 -77 78 81 0
-10 -62 77 81 0
63 -76 81 0
77 -78 81 0
-10 -62 65 -66 -67 -69 70 -73 -75 76 -77 78 -79 80 -81 0
66 -79 81 0
-66 -77 79 81 0
77 -79 81 0
70 -80 81 0
-62 63 65 -66 -67 -69 70 -73 -75 76 -77 78 -79 80 -81 0
77 -80 81 0
-70 -77 80 81 0
60 -78 81 0
74 -76 81 0
74 -82 -83 0
-74 -77 -82 83 0
-74 -77 82 -83 0
77 82 83 0
77 -82 -83 0
74 82 83 0
83 99 0
-10 -13 66 70 74 81 -83 -85 -87 -89 -91 -93 94 -95 -96 97 98 -99 0
13 -84 -85 0
-13 -61 -84 85 0
-13 -61 84 -85 0
61 84 85 0
61 -84 -85 0
13 84 85 0
85 99 0
-66 -74 81 0
60 -86 -87 0
-60 -84 -86 87 0
-60 -84 86 -87 0
84 86 87 0
84 -86 -87 0
60 86 87 0
87 99 0
-70 -74 81 0
66 -88 -89 0
-66 -84 -88 89 0
-66 -84 88 -89 0
84 88 89 0
84 -88 -89 0
66 88 89 0
89 99 0
-70 -90 91 0
70 90 91 0
70 -90 -91 0
-70 90 -91 0
91 99 0
-59 -74 81 0
-84 -92 93 0
84 92 93 0
84 -92 -93 0
-84 92 -93 0
93 99 0
-10 81 -84 -85 0
-10 -13 -70 81 -83 -85 -87 -89 -91 -93 94 95 -96 97 -98 -99 0
-74 81 -83 -84 -85 -87 -89 -91 -93 -94 95 96 97 98 -99 0
-59 -70 81 0
-66 -70 81 0
10 46 47 0
13 46 47 0
13 -59 81 -83 -85 -87 -89 -91 -93 94 -95 96 97 98 -99 0
-10 -13 -66 81 -83 -85 -87 -89 -91 -93 94 -95 -96 -97 98 -99 0
59 70 74 81 0
13 -46 -47 0
-10 -13 59 74 81 -83 -85 -87 -89 -91 -93 94 95 -96 97 -98 -99 0
-81 99 0
10 59 74 81 -83 -85 -87 -89 -91 -93 94 95 96 97 98 -99 0
-10 -13 -59 66 81 -83 -85 -87 -89 -91 -93 94 -95 -96 97 98 -99 0
-74 -96 -100 101 0
96 100 101 0
74 100 101 0
-70 -84 -102 103 0
84 102 103 0
70 102 103 0
99 -101 -103 162 -173 0
56 -106 0
-56 -64 -104 106 0
104 105 -106 0
68 104 -106 0
-56 -68 -105 106 0
64 68 -106 0
64 105 -106 0
107 -108 0
-56 -72 -107 108 0
72 -108 0
56 -108 0
109 -110 0
-56 -76 -109 110 0
76 -110 0
56 -110 0
-110 130 0
94 97 98 100 106 108 110 112 114 116 118 120 122 123 126 -130 0
56 114 123 -130 0
111 -112 0
-56 -78 -111 112 0
78 -112 0
56 -112 0
113 -114 0
79 -114 0
-79 -113 114 0
-114 130 0
94 97 98 106 108 110 112 114 116 118 120 122 123 126 129 -130 0
115 -116 0
-56 -80 -115 116 0
80 -116 0
56 -116 0
117 -118 0
-56 -82 -117 118 0
82 -118 0
56 -118 0
-118 130 0
94 97 100 106 108 110 112 114 116 118 120 122 123 126 128 -130 0
94 97 106 108 110 112 114 116 118 120 122 123 126 128 129 -130 0
94 98 100 106 108 110 112 114 116 118 120 122 123 126 127 -130 0
119 -120 0
-56 -86 -119 120 0
86 -120 0
56 -120 0
121 -122 0
-56 -88 -121 122 0
88 -122 0
56 -122 0
-122 130 0
94 98 106 108 110 112 114 116 118 120 122 123 126 127 129 -130 0
94 106 108 110 112 114 116 118 120 122 123 126 127 128 129 -130 0
-56 -94 -124 130 0
97 98 100 106 108 110 112 114 116 118 120 122 123 124 125 -130 0
106 108 110 112 114 116 118 120 122 123 124 126 127 128 129 -130 0
97 106 108 110 112 114 116 118 120 122 123 124 125 128 129 -130 0
94 100 106 108 110 112 114 116 118 120 122 123 126 127 128 -130 0
94 97 98 100 106 108 110 112 114 116 118 120 122 123 125 -130 0
98 106 108 110 112 114 116 118 120 122 123 124 125 127 129 -130 0
98 100 106 108 110 112 114 116 118 120 122 123 124 125 127 -130 0
94 97 98 106 108 110 112 114 116 118 120 122 123 125 129 -130 0
106 108 110 112 114 116 118 120 122 123 124 125 127 128 129 -130 0
94 97 106 108 110 112 114 116 118 120 122 123 125 128 129 -130 0
-56 -125 -126 130 0
-116 130 0
100 106 108 110 112 114 116 118 120 122 123 124 126 127 128 -130 0
97 106 108 110 112 114 116 118 120 122 123 124 126 128 129 -130 0
94 98 100 106 108 110 112 114 116 118 120 122 123 125 127 -130 0
97 100 106 108 110 112 114 116 118 120 122 123 124 125 128 -130 0
-56 -97 -127 130 0
97 98 100 106 108 110 112 114 116 118 120 122 123 124 126 -130 0
-112 130 0
-106 130 0
94 98 106 108 110 112 114 116 118 120 122 123 125 127 129 -130 0
97 98 106 108 110 112 114 116 118 120 122 123 124 125 129 -130 0
-123 130 0
94 106 108 110 112 114 116 118 120 122 123 125 127 128 129 -130 0
-108 130 0
-56 -98 -128 130 0
98 106 108 110 112 114 116 118 120 122 123 124 126 127 129 -130 0
98 100 106 108 110 112 114 116 118 120 122 123 124 126 127 -130 0
97 100 106 108 110 112 114 116 118 120 122 123 124 126 128 -130 0
-56 -100 -129 130 0
-120 130 0
97 98 106 108 110 112 114 116 118 120 122 123 124 126 129 -130 0
94 97 100 106 108 110 112 114 116 118 120 122 123 125 128 -130 0
94 100 106 108 110 112 114 116 118 120 122 123 125 127 128 -130 0
100 106 108 110 112 114 116 118 120 122 123 124 125 127 128 -130 0
18 24 131 134 -173 0
-2 -16 -131 173 0
18 20 24 131 -173 0
18 131 134 136 -173 0
131 132 134 136 -173 0
-2 -18 -132 173 0
20 24 131 132 -173 0
64 68 -133 0
64 132 -133 0
16 20 132 136 -173 0
-2 -72 -134 135 0
72 -135 0
-2 -20 -134 173 0
134 -135 0
-2 -76 -136 137 0
2 -173 0
76 -137 0
-2 -24 -136 173 0
-137 162 0
94 97 98 100 126 130 133 135 137 139 141 143 145 147 149 151 -162 0
16 24 132 134 -173 0
94 97 98 126 130 133 135 137 139 141 143 145 147 149 151 161 -162 0
138 -139 0
-2 -78 -138 139 0
68 131 -133 0
2 -175 0
78 -139 0
-2 -28 -138 175 0
140 -141 0
79 -141 0
-79 -140 141 0
-141 162 0
94 97 100 126 130 133 135 137 139 141 143 145 147 149 151 159 -162 0
142 -143 0
-2 -80 -142 143 0
2 -176 0
80 -143 0
-2 -32 -142 176 0
34 142 -176 0
-2 -82 -144 145 0
82 -145 0
-2 -34 -144 176 0
-145 162 0
94 97 126 130 133 135 137 139 141 143 145 147 149 151 159 161 -162 0
94 98 100 126 130 133 135 137 139 141 143 145 147 149 151 157 -162 0
94 98 126 130 133 135 137 139 141 143 145 147 149 151 157 161 -162 0
146 -147 0
86 -147 0
-86 -146 147 0
2 -179 0
-2 -88 -148 149 0
148 -149 0
88 -149 0
-2 -40 -148 179 0
-149 162 0
94 100 126 130 133 135 137 139 141 143 145 147 149 151 157 159 -162 0
2 -180 0
-2 -102 -150 151 0
150 -151 0
102 -151 0
-2 -42 -150 180 0
2 -153 0
152 -153 0
-2 -152 153 0
94 97 98 100 130 133 135 137 139 141 143 145 147 149 151 155 -162 0
-94 -153 162 0
97 98 130 133 135 137 139 141 143 145 147 149 151 153 155 161 -162 0
94 126 130 133 135 137 139 141 143 145 147 149 151 157 159 161 -162 0
94 97 98 130 133 135 137 139 141 143 145 147 149 151 155 161 -162 0
97 130 133 135 137 139 141 143 145 147 149 151 153 155 159 161 -162 0
97 100 130 133 135 137 139 141 143 145 147 149 151 153 155 159 -162 0
94 97 100 130 133 135 137 139 141 143 145 147 149 151 155 159 -162 0
98 130 133 135 137 139 141 143 145 147 149 151 153 155 157 161 -162 0
2 -155 0
154 -155 0
-2 -154 155 0
94 98 100 130 133 135 137 139 141 143 145 147 149 151 155 157 -162 0
-126 -155 162 0
98 126 130 133 135 137 139 141 143 145 147 149 151 153 157 161 -162 0
2 -157 0
156 -157 0
-2 -156 157 0
94 100 130 133 135 137 139 141 143 145 147 149 151 155 157 159 -162 0
-97 -157 162 0
97 126 130 133 135 137 139 141 143 145 147 149 151 153 159 161 -162 0
94 98 130 133 135 137 139 141 143 145 147 149 151 155 157 161 -162 0
94 130 133 135 137 139 141 143 145 147 149 151 155 157 159 161 -162 0
100 126 130 133 135 137 139 141 143 145 147 149 151 153 157 159 -162 0
2 -159 0
158 -159 0
-2 -158 159 0
97 98 126 130 133 135 137 139 141 143 145 147 149 151 153 161 -162 0
-98 -159 162 0
126 130 133 135 137 139 141 143 145 147 149 151 153 157 159 161 -162 0
2 -161 0
160 -161 0
-2 -160 161 0
94 97 130 133 135 137 139 141 143 145 147 149 151 155 159 161 -162 0
-100 -161 162 0
-151 162 0
97 100 126 130 133 135 137 139 141 143 145 147 149 151 153 159 -162 0
97 98 100 130 133 135 137 139 141 143 145 147 149 151 153 155 -162 0
100 130 133 135 137 139 141 143 145 147 149 151 153 155 157 159 -162 0
97 98 100 126 130 133 135 137 139 141 143 145 147 149 151 153 -162 0
-135 162 0
130 133 135 137 139 141 143 145 147 149 151 153 155 157 159 161 -162 0
98 100 126 130 133 135 137 139 141 143 145 147 149 151 153 157 -162 0
-139 162 0
-133 162 0
98 100 130 133 135 137 139 141 143 145 147 149 151 153 155 157 -162 0
-130 162 0
-143 162 0
1 -163 0
-1 -16 -104 163 0
20 24 104 105 -163 0
18 20 24 104 -163 0
104 105 107 109 -163 0
16 18 107 109 -163 0
-1 -18 -105 163 0
16 24 105 107 -163 0
16 20 24 105 -163 0
24 104 105 107 -163 0
16 18 20 109 -163 0
16 18 24 107 -163 0
-147 162 0
18 104 107 109 -163 0
-1 -20 -107 163 0
16 105 107 109 -163 0
18 24 104 107 -163 0
16 18 20 24 -163 0
-1 -24 -109 163 0
20 104 105 109 -163 0
16 20 105 109 -163 0
18 20 104 109 -163 0
1 -165 0
-1 -28 -111 165 0
111 164 -165 0
30 111 -165 0
-1 -30 -164 165 0
28 30 -165 0
28 164 -165 0
115 -166 0
-1 -32 -115 166 0
32 -166 0
1 -166 0
117 -167 0
-1 -34 -117 167 0
34 -167 0
1 -167 0
-167 172 0
44 48 50 52 54 163 165 166 167 168 169 171 -172 0
44 50 54 125 128 163 165 166 167 168 169 171 -172 0
44 48 50 52 129 163 165 166 167 168 169 171 -172 0
119 -168 0
-1 -38 -119 168 0
38 -168 0
1 -168 0
121 -169 0
-1 -40 -121 169 0
40 -169 0
1 -169 0
-169 172 0
44 48 50 128 129 163 165 166 167 168 169 171 -172 0
170 -171 0
-1 -42 -170 171 0
42 -171 0
1 -171 0
-1 -44 -124 172 0
48 52 124 127 129 163 165 166 167 168 169 171 -172 0
44 48 50 54 128 163 165 166 167 168 169 171 -172 0
44 48 127 128 129 163 165 166 167 168 169 171 -172 0
48 52 54 124 127 163 165 166 167 168 169 171 -172 0
48 124 127 128 129 163 165 166 167 168 169 171 -172 0
44 48 52 54 127 163 165 166 167 168 169 171 -172 0
50 52 54 124 125 163 165 166 167 168 169 171 -172 0
44 125 127 128 129 163 165 166 167 168 169 171 -172 0
-1 -48 -125 172 0
50 54 124 125 128 163 165 166 167 168 169 171 -172 0
1 -172 0
44 52 125 127 129 163 165 166 167 168 169 171 -172 0
-1 -50 -127 172 0
-171 172 0
44 50 52 125 129 163 165 166 167 168 169 171 -172 0
44 54 125 127 128 163 165 166 167 168 169 171 -172 0
44 52 54 125 127 163 165 166 167 168 169 171 -172 0
48 50 54 124 128 163 165 166 167 168 169 171 -172 0
-1 -52 -128 172 0
44 48 52 127 129 163 165 166 167 168 169 171 -172 0
48 50 124 128 129 163 165 166 167 168 169 171 -172 0
44 48 54 127 128 163 165 166 167 168 169 171 -172 0
-1 -54 -129 172 0
50 124 125 128 129 163 165 166 167 168 169 171 -172 0
50 52 124 125 129 163 165 166 167 168 169 171 -172 0
44 50 125 128 129 163 165 166 167 168 169 171 -172 0
52 124 125 127 129 163 165 166 167 168 169 171 -172 0
48 50 52 54 124 163 165 166 167 168 169 171 -172 0
52 54 124 125 127 163 165 166 167 168 169 171 -172 0
124 125 127 128 129 163 165 166 167 168 169 171 -172 0
54 124 125 127 128 163 165 166 167 168 169 171 -172 0
48 50 52 124 129 163 165 166 167 168 169 171 -172 0
-165 172 0
-166 172 0
44 50 52 54 125 163 165 166 167 168 169 171 -172 0
-168 172 0
-163 172 0
48 54 124 127 128 163 165 166 167 168 169 171 -172 0
16 132 134 136 -173 0
-2 -64 -131 133 0
-2 -68 -132 133 0
24 131 132 134 -173 0
16 20 24 132 -173 0
131 132 -133 0
18 20 131 136 -173 0
2 -135 0
16 18 20 24 -173 0
2 -137 0
16 18 24 134 -173 0
136 -137 0
2 -133 0
16 18 20 136 -173 0
30 138 -175 0
2 -139 0
16 18 134 136 -173 0
20 131 132 136 -173 0
-2 -30 -174 175 0
138 174 -175 0
28 30 -175 0
28 174 -175 0
144 -145 0
2 -143 0
32 144 -176 0
2 -145 0
32 34 -176 0
142 144 -176 0
99 -101 -103 162 -176 0
44 48 50 52 54 99 -101 -103 -162 172 173 175 176 178 179 180 0
44 48 50 52 99 -101 -103 161 -162 172 173 175 176 178 179 180 0
177 -178 0
-2 -38 -177 178 0
38 -178 0
2 -178 0
148 -179 0
40 -179 0
2 -149 0
99 162 -179 0
44 48 50 54 99 -101 -103 159 -162 172 173 175 176 178 179 180 0
150 -180 0
42 -180 0
2 -151 0
44 48 52 54 99 -101 -103 157 -162 172 173 175 176 178 179 180 0
-44 99 -101 -103 -153 162 0
48 52 99 -101 -103 153 157 161 -162 172 173 175 176 178 179 180 0
44 48 50 99 -101 -103 159 161 -162 172 173 175 176 178 179 180 0
44 48 52 99 -101 -103 157 161 -162 172 173 175 176 178 179 180 0
48 99 -101 -103 153 157 159 161 -162 172 173 175 176 178 179 180 0
48 54 99 -101 -103 153 157 159 -162 172 173 175 176 178 179 180 0
44 48 54 99 -101 -103 157 159 -162 172 173 175 176 178 179 180 0
50 52 99 -101 -103 153 155 161 -162 172 173 175 176 178 179 180 0
44 50 52 54 99 -101 -103 155 -162 172 173 175 176 178 179 180 0
-48 99 -101 -103 -155 162 0
48 50 52 99 -101 -103 153 161 -162 172 173 175 176 178 179 180 0
44 50 54 99 -101 -103 155 159 -162 172 173 175 176 178 179 180 0
-50 99 -101 -103 -157 162 0
44 99 -101 -103 155 157 159 161 -162 172 173 175 176 178 179 180 0
44 50 52 99 -101 -103 155 161 -162 172 173 175 176 178 179 180 0
44 50 99 -101 -103 155 159 161 -162 172 173 175 176 178 179 180 0
48 50 54 99 -101 -103 153 159 -162 172 173 175 176 178 179 180 0
44 52 99 -101 -103 155 157 161 -162 172 173 175 176 178 179 180 0
-52 99 -101 -103 -159 162 0
48 50 99 -101 -103 153 159 161 -162 172 173 175 176 178 179 180 0
44 48 99 -101 -103 157 159 161 -162 172 173 175 176 178 179 180 0
-54 99 -101 -103 -161 162 0
99 -101 -103 162 -180 0
44 54 99 -101 -103 155 157 159 -162 172 173 175 176 178 179 180 0
48 52 54 99 -101 -103 153 157 -162 172 173 175 176 178 179 180 0
50 54 99 -101 -103 153 155 159 -162 172 173 175 176 178 179 180 0
44 52 54 99 -101 -103 155 157 -162 172 173 175 176 178 179 180 0
52 54 99 -101 -103 153 155 157 -162 172 173 175 176 178 179 180 0
50 99 -101 -103 153 155 159 161 -162 172 173 175 176 178 179 180 0
48 50 52 54 99 -101 -103 153 -162 172 173 175 176 178 179 180 0
54 99 -101 -103 153 155 157 159 -162 172 173 175 176 178 179 180 0
52 99 -101 -103 153 155 157 161 -162 172 173 175 176 178 179 180 0
50 52 54 99 -101 -103 153 155 -162 172 173 175 176 178 179 180 0
99 -101 -103 162 -175 0
99 -101 -103 153 155 157 159 161 -162 172 173 175 176 178 179 180 0
99 -101 -103 162 -178 0
99 -101 -103 162 -172 0
